70 170808
70 9 28 22 56 48 55 15 66 60 64 35 53 7 47 52 40 13 16 49 21 45 6 1 41 59 8 37 69 43 32 51 3 5 54 27 61 42 33 57 68 24 14 58 44 38 36 34 25 26 31 67 23 4 46 20 19 50 62 18 30 2 17 65 12 39 63 29 10 11 
